c A SAT instance generated from a 3-CNF formula that had 33 clauses and 11 variables
p cnf 11 33
3 1 5 0
-11 -2 -5 0
-3 -9 -4 0
-5 1 10 0
3 -4 -10 0
-4 -9 -11 0
1 7 -5 0
5 -2 7 0
-7 10 -1 0
4 9 11 0
-5 -4 -7 0
-6 -3 9 0
-8 10 -7 0
5 -6 7 0
11 6 7 0
6 7 9 0
11 2 10 0
-8 3 -11 0
8 -7 -10 0
3 5 -6 0
6 8 9 0
6 -2 5 0
-5 -9 8 0
-4 -11 2 0
11 -6 7 0
-9 -8 -1 0
-1 11 -9 0
4 7 -8 0
-11 -2 -8 0
6 -11 1 0
9 8 -2 0
3 -2 -9 0
-5 6 -4 0
